JulietBench/Juliet_Based_Patch_Bench/linux/CWE-189-Numeric-Errors/CVE_2009_4307_503358ae01b70ce6909d19dd01287093f6b6271c/Resultext4_fill_flex_info_Snippet_patch2EQ.smt2
; benchmark generated from python API
(set-info :status unknown)
(declare-fun R () (_ BitVec 32))
(declare-fun rdi () (_ BitVec 64))
(assert
 (let (($x72 (= (_ bv2 32) R)))
 (let (($x50 (= (_ bv1 32) R)))
 (let ((?x6 ((_ extract 31 0) rdi)))
 (let (($x10 (= (_ bv0 32) ?x6)))
 (let (($x61 (and $x10 $x50)))
 (let ((?x63 ((_ extract 4 0) rdi)))
 (let ((?x92 (concat (_ bv0 59) ?x63)))
 (let ((?x93 (bvshl (_ bv1 64) ?x92)))
 (let ((?x76 ((_ extract 31 0) ?x93)))
 (let (($x45 (= R ?x76)))
 (let (($x36 (and (distinct (_ bv0 32) ?x6) true)))
 (let (($x47 (and $x36 $x45)))
 (let (($x66 (or $x47 $x61)))
 (and $x66 $x72)))))))))))))))
(check-sat)
